p cnf 964 2475
51 -2 -697 0
-51 2 0
-51 697 0
52 -51 -3 0
-52 51 0
-52 3 0
53 -698 -4 0
-53 698 0
-53 4 0
54 -53 -699 0
-54 53 0
-54 699 0
55 -700 -701 0
-55 700 0
-55 701 0
56 -702 -7 0
-56 702 0
-56 7 0
57 -56 -703 0
-57 56 0
-57 703 0
58 -704 -55 0
-58 704 0
-58 55 0
59 -10 -705 0
-59 10 0
-59 705 0
60 -59 -706 0
-60 59 0
-60 706 0
61 -707 -58 0
-61 707 0
-61 58 0
62 -13 -12 0
-62 13 0
-62 12 0
63 -62 -9 0
-63 62 0
-63 9 0
64 -708 -61 0
-64 708 0
-64 61 0
65 -14 -12 0
-65 14 0
-65 12 0
66 -65 -709 0
-66 65 0
-66 709 0
67 -710 -64 0
-67 710 0
-67 64 0
68 -711 -16 0
-68 711 0
-68 16 0
69 -68 -698 0
-69 68 0
-69 698 0
70 -712 -67 0
-70 712 0
-70 67 0
71 -713 -706 0
-71 713 0
-71 706 0
72 -71 -19 0
-72 71 0
-72 19 0
73 -714 -70 0
-73 714 0
-73 70 0
74 -20 -715 0
-74 20 0
-74 715 0
75 -74 -713 0
-75 74 0
-75 713 0
76 -716 -73 0
-76 716 0
-76 73 0
77 -717 -2 0
-77 717 0
-77 2 0
78 -77 -21 0
-78 77 0
-78 21 0
79 -718 -76 0
-79 718 0
-79 76 0
80 -22 -14 0
-80 22 0
-80 14 0
81 -80 -9 0
-81 80 0
-81 9 0
82 -719 -79 0
-82 719 0
-82 79 0
83 -20 -720 0
-83 20 0
-83 720 0
84 -83 -721 0
-84 83 0
-84 721 0
85 -722 -82 0
-85 722 0
-85 82 0
86 -24 -22 0
-86 24 0
-86 22 0
87 -86 -10 0
-87 86 0
-87 10 0
88 -723 -85 0
-88 723 0
-88 85 0
89 -702 -3 0
-89 702 0
-89 3 0
90 -89 -724 0
-90 89 0
-90 724 0
91 -725 -88 0
-91 725 0
-91 88 0
92 -726 -727 0
-92 726 0
-92 727 0
93 -92 -728 0
-93 92 0
-93 728 0
94 -729 -91 0
-94 729 0
-94 91 0
95 -730 -731 0
-95 730 0
-95 731 0
96 -95 -721 0
-96 95 0
-96 721 0
97 -732 -94 0
-97 732 0
-97 94 0
98 -733 -24 0
-98 733 0
-98 24 0
99 -98 -10 0
-99 98 0
-99 10 0
100 -734 -97 0
-100 734 0
-100 97 0
101 -735 -7 0
-101 735 0
-101 7 0
102 -101 -21 0
-102 101 0
-102 21 0
103 -736 -100 0
-103 736 0
-103 100 0
104 -737 -11 0
-104 737 0
-104 11 0
105 -104 -738 0
-105 104 0
-105 738 0
106 -739 -103 0
-106 739 0
-106 103 0
107 -740 -697 0
-107 740 0
-107 697 0
108 -107 -703 0
-108 107 0
-108 703 0
109 -741 -106 0
-109 741 0
-109 106 0
110 -32 -742 0
-110 32 0
-110 742 0
111 -110 -702 0
-111 110 0
-111 702 0
112 -743 -109 0
-112 743 0
-112 109 0
113 -33 -744 0
-113 33 0
-113 744 0
114 -113 -709 0
-114 113 0
-114 709 0
115 -745 -112 0
-115 745 0
-115 112 0
116 -34 -746 0
-116 34 0
-116 746 0
117 -116 -738 0
-117 116 0
-117 738 0
118 -747 -115 0
-118 747 0
-118 115 0
119 -29 -748 0
-119 29 0
-119 748 0
120 -119 -35 0
-120 119 0
-120 35 0
121 -749 -118 0
-121 749 0
-121 118 0
122 -36 -13 0
-122 36 0
-122 13 0
123 -122 -9 0
-123 122 0
-123 9 0
124 -750 -121 0
-124 750 0
-124 121 0
125 -751 -752 0
-125 751 0
-125 752 0
126 -125 -13 0
-126 125 0
-126 13 0
127 -753 -124 0
-127 753 0
-127 124 0
128 -23 -715 0
-128 23 0
-128 715 0
129 -128 -18 0
-129 128 0
-129 18 0
130 -754 -127 0
-130 754 0
-130 127 0
131 -20 -10 0
-131 20 0
-131 10 0
132 -131 -38 0
-132 131 0
-132 38 0
133 -755 -130 0
-133 755 0
-133 130 0
134 -30 -699 0
-134 30 0
-134 699 0
135 -134 -726 0
-135 134 0
-135 726 0
136 -756 -133 0
-136 756 0
-136 133 0
137 -721 -12 0
-137 721 0
-137 12 0
138 -137 -757 0
-138 137 0
-138 757 0
139 -758 -136 0
-139 758 0
-139 136 0
140 -33 -6 0
-140 33 0
-140 6 0
141 -140 -40 0
-141 140 0
-141 40 0
142 -759 -139 0
-142 759 0
-142 139 0
143 -41 -737 0
-143 41 0
-143 737 0
144 -143 -42 0
-144 143 0
-144 42 0
145 -760 -142 0
-145 760 0
-145 142 0
146 -18 -7 0
-146 18 0
-146 7 0
147 -146 -43 0
-147 146 0
-147 43 0
148 -761 -145 0
-148 761 0
-148 145 0
149 -38 -762 0
-149 38 0
-149 762 0
150 -149 -26 0
-150 149 0
-150 26 0
151 -763 -148 0
-151 763 0
-151 148 0
152 -33 -730 0
-152 33 0
-152 730 0
153 -152 -26 0
-153 152 0
-153 26 0
154 -764 -151 0
-154 764 0
-154 151 0
155 -37 -698 0
-155 37 0
-155 698 0
156 -155 -765 0
-156 155 0
-156 765 0
157 -766 -154 0
-157 766 0
-157 154 0
158 -767 -709 0
-158 767 0
-158 709 0
159 -158 -19 0
-159 158 0
-159 19 0
160 -768 -157 0
-160 768 0
-160 157 0
161 -30 -29 0
-161 30 0
-161 29 0
162 -161 -42 0
-162 161 0
-162 42 0
163 -769 -160 0
-163 769 0
-163 160 0
164 -38 -11 0
-164 38 0
-164 11 0
165 -164 -724 0
-165 164 0
-165 724 0
166 -770 -163 0
-166 770 0
-166 163 0
167 -771 -752 0
-167 771 0
-167 752 0
168 -167 -38 0
-168 167 0
-168 38 0
169 -772 -166 0
-169 772 0
-169 166 0
170 -45 -10 0
-170 45 0
-170 10 0
171 -170 -773 0
-171 170 0
-171 773 0
172 -774 -169 0
-172 774 0
-172 169 0
173 -730 -697 0
-173 730 0
-173 697 0
174 -173 -46 0
-174 173 0
-174 46 0
175 -775 -172 0
-175 775 0
-175 172 0
176 -20 -711 0
-176 20 0
-176 711 0
177 -176 -40 0
-177 176 0
-177 40 0
178 -776 -175 0
-178 776 0
-178 175 0
179 -23 -699 0
-179 23 0
-179 699 0
180 -179 -8 0
-180 179 0
-180 8 0
181 -777 -178 0
-181 777 0
-181 178 0
182 -20 -778 0
-182 20 0
-182 778 0
183 -182 -779 0
-183 182 0
-183 779 0
184 -780 -181 0
-184 780 0
-184 181 0
185 -781 -703 0
-185 781 0
-185 703 0
186 -185 -713 0
-186 185 0
-186 713 0
187 -782 -184 0
-187 782 0
-187 184 0
188 -744 -5 0
-188 744 0
-188 5 0
189 -188 -19 0
-189 188 0
-189 19 0
190 -783 -187 0
-190 783 0
-190 187 0
191 -762 -12 0
-191 762 0
-191 12 0
192 -191 -21 0
-192 191 0
-192 21 0
193 -784 -190 0
-193 784 0
-193 190 0
194 -45 -36 0
-194 45 0
-194 36 0
195 -194 -703 0
-195 194 0
-195 703 0
196 -785 -193 0
-196 785 0
-196 193 0
197 -751 -715 0
-197 751 0
-197 715 0
198 -197 -23 0
-198 197 0
-198 23 0
199 -786 -196 0
-199 786 0
-199 196 0
200 -33 -1 0
-200 33 0
-200 1 0
201 -200 -724 0
-201 200 0
-201 724 0
202 -787 -199 0
-202 787 0
-202 199 0
203 -788 -733 0
-203 788 0
-203 733 0
204 -203 -779 0
-204 203 0
-204 779 0
205 -789 -202 0
-205 789 0
-205 202 0
206 -41 -706 0
-206 41 0
-206 706 0
207 -206 -15 0
-207 206 0
-207 15 0
208 -790 -205 0
-208 790 0
-208 205 0
209 -771 -13 0
-209 771 0
-209 13 0
210 -209 -8 0
-210 209 0
-210 8 0
211 -791 -208 0
-211 791 0
-211 208 0
212 -4 -748 0
-212 4 0
-212 748 0
213 -212 -699 0
-213 212 0
-213 699 0
214 -792 -211 0
-214 792 0
-214 211 0
215 -32 -737 0
-215 32 0
-215 737 0
216 -215 -738 0
-216 215 0
-216 738 0
217 -793 -214 0
-217 793 0
-217 214 0
218 -40 -751 0
-218 40 0
-218 751 0
219 -218 -709 0
-219 218 0
-219 709 0
220 -794 -217 0
-220 794 0
-220 217 0
221 -795 -6 0
-221 795 0
-221 6 0
222 -221 -25 0
-222 221 0
-222 25 0
223 -796 -220 0
-223 796 0
-223 220 0
224 -29 -10 0
-224 29 0
-224 10 0
225 -224 -4 0
-225 224 0
-225 4 0
226 -797 -223 0
-226 797 0
-226 223 0
227 -32 -720 0
-227 32 0
-227 720 0
228 -227 -713 0
-228 227 0
-228 713 0
229 -798 -226 0
-229 798 0
-229 226 0
230 -20 -1 0
-230 20 0
-230 1 0
231 -230 -41 0
-231 230 0
-231 41 0
232 -799 -229 0
-232 799 0
-232 229 0
233 -38 -15 0
-233 38 0
-233 15 0
234 -233 -713 0
-234 233 0
-234 713 0
235 -800 -232 0
-235 800 0
-235 232 0
236 -31 -709 0
-236 31 0
-236 709 0
237 -236 -43 0
-237 236 0
-237 43 0
238 -801 -235 0
-238 801 0
-238 235 0
239 -735 -4 0
-239 735 0
-239 4 0
240 -239 -767 0
-240 239 0
-240 767 0
241 -802 -238 0
-241 802 0
-241 238 0
242 -24 -7 0
-242 24 0
-242 7 0
243 -242 -771 0
-243 242 0
-243 771 0
244 -803 -241 0
-244 803 0
-244 241 0
245 -42 -699 0
-245 42 0
-245 699 0
246 -245 -25 0
-246 245 0
-246 25 0
247 -804 -244 0
-247 804 0
-247 244 0
248 -767 -31 0
-248 767 0
-248 31 0
249 -248 -5 0
-249 248 0
-249 5 0
250 -805 -247 0
-250 805 0
-250 247 0
251 -30 -23 0
-251 30 0
-251 23 0
252 -251 -48 0
-252 251 0
-252 48 0
253 -806 -250 0
-253 806 0
-253 250 0
254 -751 -17 0
-254 751 0
-254 17 0
255 -254 -39 0
-255 254 0
-255 39 0
256 -807 -253 0
-256 807 0
-256 253 0
257 -752 -746 0
-257 752 0
-257 746 0
258 -257 -773 0
-258 257 0
-258 773 0
259 -808 -256 0
-259 808 0
-259 256 0
260 -37 -29 0
-260 37 0
-260 29 0
261 -260 -742 0
-261 260 0
-261 742 0
262 -809 -259 0
-262 809 0
-262 259 0
263 -773 -742 0
-263 773 0
-263 742 0
264 -263 -49 0
-264 263 0
-264 49 0
265 -810 -262 0
-265 810 0
-265 262 0
266 -50 -12 0
-266 50 0
-266 12 0
267 -266 -757 0
-267 266 0
-267 757 0
268 -811 -265 0
-268 811 0
-268 265 0
269 -28 -10 0
-269 28 0
-269 10 0
270 -269 -34 0
-270 269 0
-270 34 0
271 -812 -268 0
-271 812 0
-271 268 0
272 -813 -22 0
-272 813 0
-272 22 0
273 -272 -738 0
-273 272 0
-273 738 0
274 -814 -271 0
-274 814 0
-274 271 0
275 -815 -740 0
-275 815 0
-275 740 0
276 -275 -46 0
-276 275 0
-276 46 0
277 -816 -274 0
-277 816 0
-277 274 0
278 -746 -3 0
-278 746 0
-278 3 0
279 -278 -26 0
-279 278 0
-279 26 0
280 -817 -277 0
-280 817 0
-280 277 0
281 -788 -773 0
-281 788 0
-281 773 0
282 -281 -49 0
-282 281 0
-282 49 0
283 -818 -280 0
-283 818 0
-283 280 0
284 -744 -819 0
-284 744 0
-284 819 0
285 -284 -724 0
-285 284 0
-285 724 0
286 -820 -283 0
-286 820 0
-286 283 0
287 -17 -705 0
-287 17 0
-287 705 0
288 -287 -27 0
-288 287 0
-288 27 0
289 -821 -286 0
-289 821 0
-289 286 0
290 -24 -4 0
-290 24 0
-290 4 0
291 -290 -767 0
-291 290 0
-291 767 0
292 -822 -289 0
-292 822 0
-292 289 0
293 -746 -702 0
-293 746 0
-293 702 0
294 -293 -15 0
-294 293 0
-294 15 0
295 -823 -292 0
-295 823 0
-295 292 0
296 -757 -706 0
-296 757 0
-296 706 0
297 -296 -824 0
-297 296 0
-297 824 0
298 -825 -295 0
-298 825 0
-298 295 0
299 -11 -3 0
-299 11 0
-299 3 0
300 -299 -713 0
-300 299 0
-300 713 0
301 -826 -298 0
-301 826 0
-301 298 0
302 -47 -827 0
-302 47 0
-302 827 0
303 -302 -26 0
-303 302 0
-303 26 0
304 -828 -301 0
-304 828 0
-304 301 0
305 -762 -24 0
-305 762 0
-305 24 0
306 -305 -829 0
-306 305 0
-306 829 0
307 -830 -304 0
-307 830 0
-307 304 0
308 -751 -29 0
-308 751 0
-308 29 0
309 -308 -762 0
-309 308 0
-309 762 0
310 -831 -307 0
-310 831 0
-310 307 0
311 -730 -706 0
-311 730 0
-311 706 0
312 -311 -728 0
-312 311 0
-312 728 0
313 -832 -310 0
-313 832 0
-313 310 0
314 -733 -9 0
-314 733 0
-314 9 0
315 -314 -49 0
-315 314 0
-315 49 0
316 -833 -313 0
-316 833 0
-316 313 0
317 -12 -727 0
-317 12 0
-317 727 0
318 -317 -6 0
-318 317 0
-318 6 0
319 -834 -316 0
-319 834 0
-319 316 0
320 -50 -744 0
-320 50 0
-320 744 0
321 -320 -726 0
-321 320 0
-321 726 0
322 -835 -319 0
-322 835 0
-322 319 0
323 -44 -34 0
-323 44 0
-323 34 0
324 -323 -19 0
-324 323 0
-324 19 0
325 -836 -322 0
-325 836 0
-325 322 0
326 -48 -731 0
-326 48 0
-326 731 0
327 -326 -699 0
-327 326 0
-327 699 0
328 -837 -325 0
-328 837 0
-328 325 0
329 -49 -757 0
-329 49 0
-329 757 0
330 -329 -43 0
-330 329 0
-330 43 0
331 -838 -328 0
-331 838 0
-331 328 0
332 -14 -4 0
-332 14 0
-332 4 0
333 -332 -744 0
-333 332 0
-333 744 0
334 -839 -331 0
-334 839 0
-334 331 0
335 -742 -10 0
-335 742 0
-335 10 0
336 -335 -778 0
-336 335 0
-336 778 0
337 -840 -334 0
-337 840 0
-337 334 0
338 -740 -727 0
-338 740 0
-338 727 0
339 -338 -706 0
-339 338 0
-339 706 0
340 -841 -337 0
-340 841 0
-340 337 0
341 -829 -3 0
-341 829 0
-341 3 0
342 -341 -25 0
-342 341 0
-342 25 0
343 -842 -340 0
-343 842 0
-343 340 0
344 -24 -737 0
-344 24 0
-344 737 0
345 -344 -765 0
-345 344 0
-345 765 0
346 -843 -343 0
-346 843 0
-346 343 0
347 -46 -22 0
-347 46 0
-347 22 0
348 -347 -9 0
-348 347 0
-348 9 0
349 -844 -346 0
-349 844 0
-349 346 0
350 -37 -748 0
-350 37 0
-350 748 0
351 -350 -19 0
-351 350 0
-351 19 0
352 -845 -349 0
-352 845 0
-352 349 0
353 -735 -720 0
-353 735 0
-353 720 0
354 -353 -711 0
-354 353 0
-354 711 0
355 -846 -352 0
-355 846 0
-355 352 0
356 -20 -14 0
-356 20 0
-356 14 0
357 -356 -19 0
-357 356 0
-357 19 0
358 -847 -355 0
-358 847 0
-358 355 0
359 -744 -7 0
-359 744 0
-359 7 0
360 -359 -738 0
-360 359 0
-360 738 0
361 -848 -358 0
-361 848 0
-361 358 0
362 -37 -16 0
-362 37 0
-362 16 0
363 -362 -779 0
-363 362 0
-363 779 0
364 -849 -361 0
-364 849 0
-364 361 0
365 -850 -795 0
-365 850 0
-365 795 0
366 -365 -9 0
-366 365 0
-366 9 0
367 -851 -364 0
-367 851 0
-367 364 0
368 -7 -3 0
-368 7 0
-368 3 0
369 -368 -35 0
-369 368 0
-369 35 0
370 -852 -367 0
-370 852 0
-370 367 0
371 -22 -20 0
-371 22 0
-371 20 0
372 -371 -728 0
-372 371 0
-372 728 0
373 -853 -370 0
-373 853 0
-373 370 0
374 -706 -1 0
-374 706 0
-374 1 0
375 -374 -25 0
-375 374 0
-375 25 0
376 -854 -373 0
-376 854 0
-376 373 0
377 -717 -748 0
-377 717 0
-377 748 0
378 -377 -765 0
-378 377 0
-378 765 0
379 -855 -376 0
-379 855 0
-379 376 0
380 -11 -702 0
-380 11 0
-380 702 0
381 -380 -15 0
-381 380 0
-381 15 0
382 -856 -379 0
-382 856 0
-382 379 0
383 -757 -1 0
-383 757 0
-383 1 0
384 -383 -9 0
-384 383 0
-384 9 0
385 -857 -382 0
-385 857 0
-385 382 0
386 -40 -38 0
-386 40 0
-386 38 0
387 -386 -702 0
-387 386 0
-387 702 0
388 -858 -385 0
-388 858 0
-388 385 0
389 -41 -20 0
-389 41 0
-389 20 0
390 -389 -26 0
-390 389 0
-390 26 0
391 -859 -388 0
-391 859 0
-391 388 0
392 -353 -738 0
-392 353 0
-392 738 0
393 -860 -391 0
-393 860 0
-393 391 0
394 -12 -697 0
-394 12 0
-394 697 0
395 -394 -31 0
-395 394 0
-395 31 0
396 -861 -393 0
-396 861 0
-396 393 0
397 -332 -25 0
-397 332 0
-397 25 0
398 -862 -396 0
-398 862 0
-398 396 0
399 -829 -30 0
-399 829 0
-399 30 0
400 -399 -34 0
-400 399 0
-400 34 0
401 -863 -398 0
-401 863 0
-401 398 0
402 -116 -27 0
-402 116 0
-402 27 0
403 -864 -401 0
-403 864 0
-403 401 0
404 -715 -8 0
-404 715 0
-404 8 0
405 -404 -713 0
-405 404 0
-405 713 0
406 -865 -403 0
-406 865 0
-406 403 0
407 -711 -13 0
-407 711 0
-407 13 0
408 -407 -19 0
-408 407 0
-408 19 0
409 -866 -406 0
-409 866 0
-409 406 0
410 -45 -773 0
-410 45 0
-410 773 0
411 -410 -25 0
-411 410 0
-411 25 0
412 -867 -409 0
-412 867 0
-412 409 0
413 -752 -711 0
-413 752 0
-413 711 0
414 -413 -18 0
-414 413 0
-414 18 0
415 -868 -412 0
-415 868 0
-415 412 0
416 -42 -730 0
-416 42 0
-416 730 0
417 -416 -18 0
-417 416 0
-417 18 0
418 -869 -415 0
-418 869 0
-418 415 0
419 -751 -711 0
-419 751 0
-419 711 0
420 -419 -757 0
-420 419 0
-420 757 0
421 -870 -418 0
-421 870 0
-421 418 0
422 -781 -779 0
-422 781 0
-422 779 0
423 -422 -27 0
-423 422 0
-423 27 0
424 -871 -421 0
-424 871 0
-424 421 0
425 -735 -727 0
-425 735 0
-425 727 0
426 -425 -824 0
-426 425 0
-426 824 0
427 -872 -424 0
-427 872 0
-427 424 0
428 -23 -819 0
-428 23 0
-428 819 0
429 -428 -765 0
-429 428 0
-429 765 0
430 -873 -427 0
-430 873 0
-430 427 0
431 -32 -748 0
-431 32 0
-431 748 0
432 -431 -42 0
-432 431 0
-432 42 0
433 -874 -430 0
-433 874 0
-433 430 0
434 -38 -31 0
-434 38 0
-434 31 0
435 -434 -728 0
-435 434 0
-435 728 0
436 -875 -433 0
-436 875 0
-436 433 0
437 -731 -819 0
-437 731 0
-437 819 0
438 -437 -21 0
-438 437 0
-438 21 0
439 -876 -436 0
-439 876 0
-439 436 0
440 -795 -10 0
-440 795 0
-440 10 0
441 -440 -6 0
-441 440 0
-441 6 0
442 -877 -439 0
-442 877 0
-442 439 0
443 -771 -748 0
-443 771 0
-443 748 0
444 -443 -5 0
-444 443 0
-444 5 0
445 -878 -442 0
-445 878 0
-445 442 0
446 -41 -24 0
-446 41 0
-446 24 0
447 -446 -19 0
-447 446 0
-447 19 0
448 -879 -445 0
-448 879 0
-448 445 0
449 -735 -12 0
-449 735 0
-449 12 0
450 -449 -6 0
-450 449 0
-450 6 0
451 -880 -448 0
-451 880 0
-451 448 0
452 -30 -28 0
-452 30 0
-452 28 0
453 -452 -33 0
-453 452 0
-453 33 0
454 -881 -451 0
-454 881 0
-454 451 0
455 -781 -39 0
-455 781 0
-455 39 0
456 -455 -3 0
-456 455 0
-456 3 0
457 -882 -454 0
-457 882 0
-457 454 0
458 -767 -5 0
-458 767 0
-458 5 0
459 -458 -45 0
-459 458 0
-459 45 0
460 -883 -457 0
-460 883 0
-460 457 0
461 -813 -765 0
-461 813 0
-461 765 0
462 -461 -34 0
-462 461 0
-462 34 0
463 -884 -460 0
-463 884 0
-463 460 0
464 -46 -771 0
-464 46 0
-464 771 0
465 -464 -40 0
-465 464 0
-465 40 0
466 -885 -463 0
-466 885 0
-466 463 0
467 -36 -819 0
-467 36 0
-467 819 0
468 -467 -39 0
-468 467 0
-468 39 0
469 -886 -466 0
-469 886 0
-469 466 0
470 -746 -711 0
-470 746 0
-470 711 0
471 -470 -42 0
-471 470 0
-471 42 0
472 -887 -469 0
-472 887 0
-472 469 0
473 -17 -10 0
-473 17 0
-473 10 0
474 -473 -43 0
-474 473 0
-474 43 0
475 -888 -472 0
-475 888 0
-475 472 0
476 -9 -727 0
-476 9 0
-476 727 0
477 -476 -25 0
-477 476 0
-477 25 0
478 -889 -475 0
-478 889 0
-478 475 0
479 -48 -35 0
-479 48 0
-479 35 0
480 -479 -827 0
-480 479 0
-480 827 0
481 -890 -478 0
-481 890 0
-481 478 0
482 -709 -12 0
-482 709 0
-482 12 0
483 -482 -726 0
-483 482 0
-483 726 0
484 -891 -481 0
-484 891 0
-484 481 0
485 -731 -748 0
-485 731 0
-485 748 0
486 -485 -39 0
-486 485 0
-486 39 0
487 -892 -484 0
-487 892 0
-487 484 0
488 -730 -717 0
-488 730 0
-488 717 0
489 -488 -721 0
-489 488 0
-489 721 0
490 -893 -487 0
-490 893 0
-490 487 0
491 -44 -815 0
-491 44 0
-491 815 0
492 -491 -26 0
-492 491 0
-492 26 0
493 -894 -490 0
-493 894 0
-493 490 0
494 -37 -14 0
-494 37 0
-494 14 0
495 -494 -23 0
-495 494 0
-495 23 0
496 -895 -493 0
-496 895 0
-496 493 0
497 -48 -3 0
-497 48 0
-497 3 0
498 -497 -27 0
-498 497 0
-498 27 0
499 -896 -496 0
-499 896 0
-499 496 0
500 -107 -771 0
-500 107 0
-500 771 0
501 -897 -499 0
-501 897 0
-501 499 0
502 -44 -5 0
-502 44 0
-502 5 0
503 -502 -49 0
-503 502 0
-503 49 0
504 -898 -501 0
-504 898 0
-504 501 0
505 -43 -706 0
-505 43 0
-505 706 0
506 -505 -19 0
-506 505 0
-506 19 0
507 -899 -504 0
-507 899 0
-507 504 0
508 -46 -1 0
-508 46 0
-508 1 0
509 -508 -40 0
-509 508 0
-509 40 0
510 -900 -507 0
-510 900 0
-510 507 0
511 -757 -735 0
-511 757 0
-511 735 0
512 -511 -41 0
-512 511 0
-512 41 0
513 -901 -510 0
-513 901 0
-513 510 0
514 -705 -697 0
-514 705 0
-514 697 0
515 -514 -773 0
-515 514 0
-515 773 0
516 -902 -513 0
-516 902 0
-516 513 0
517 -47 -778 0
-517 47 0
-517 778 0
518 -517 -15 0
-518 517 0
-518 15 0
519 -903 -516 0
-519 903 0
-519 516 0
520 -742 -699 0
-520 742 0
-520 699 0
521 -520 -8 0
-521 520 0
-521 8 0
522 -904 -519 0
-522 904 0
-522 519 0
523 -46 -757 0
-523 46 0
-523 757 0
524 -523 -9 0
-524 523 0
-524 9 0
525 -905 -522 0
-525 905 0
-525 522 0
526 -813 -47 0
-526 813 0
-526 47 0
527 -526 -3 0
-527 526 0
-527 3 0
528 -906 -525 0
-528 906 0
-528 525 0
529 -212 -35 0
-529 212 0
-529 35 0
530 -907 -528 0
-530 907 0
-530 528 0
531 -50 -740 0
-531 50 0
-531 740 0
532 -531 -795 0
-532 531 0
-532 795 0
533 -908 -530 0
-533 908 0
-533 530 0
534 -715 -3 0
-534 715 0
-534 3 0
535 -534 -829 0
-535 534 0
-535 829 0
536 -909 -533 0
-536 909 0
-536 533 0
537 -795 -773 0
-537 795 0
-537 773 0
538 -537 -910 0
-538 537 0
-538 910 0
539 -911 -536 0
-539 911 0
-539 536 0
540 -771 -717 0
-540 771 0
-540 717 0
541 -540 -744 0
-541 540 0
-541 744 0
542 -912 -539 0
-542 912 0
-542 539 0
543 -50 -3 0
-543 50 0
-543 3 0
544 -543 -49 0
-544 543 0
-544 49 0
545 -913 -542 0
-545 913 0
-545 542 0
546 -152 -49 0
-546 152 0
-546 49 0
547 -914 -545 0
-547 914 0
-547 545 0
548 -735 -10 0
-548 735 0
-548 10 0
549 -548 -44 0
-549 548 0
-549 44 0
550 -915 -547 0
-550 915 0
-550 547 0
551 -47 -705 0
-551 47 0
-551 705 0
552 -551 -46 0
-552 551 0
-552 46 0
553 -916 -550 0
-553 916 0
-553 550 0
554 -20 -11 0
-554 20 0
-554 11 0
555 -554 -699 0
-555 554 0
-555 699 0
556 -917 -553 0
-556 917 0
-556 553 0
557 -11 -698 0
-557 11 0
-557 698 0
558 -557 -824 0
-558 557 0
-558 824 0
559 -918 -556 0
-559 918 0
-559 556 0
560 -13 -2 0
-560 13 0
-560 2 0
561 -560 -27 0
-561 560 0
-561 27 0
562 -919 -559 0
-562 919 0
-562 559 0
563 -7 -697 0
-563 7 0
-563 697 0
564 -563 -742 0
-564 563 0
-564 742 0
565 -920 -562 0
-565 920 0
-565 562 0
566 -36 -34 0
-566 36 0
-566 34 0
567 -566 -49 0
-567 566 0
-567 49 0
568 -921 -565 0
-568 921 0
-568 565 0
569 -771 -22 0
-569 771 0
-569 22 0
570 -569 -27 0
-570 569 0
-570 27 0
571 -922 -568 0
-571 922 0
-571 568 0
572 -740 -2 0
-572 740 0
-572 2 0
573 -572 -18 0
-573 572 0
-573 18 0
574 -923 -571 0
-574 923 0
-574 571 0
575 -746 -12 0
-575 746 0
-575 12 0
576 -575 -41 0
-576 575 0
-576 41 0
577 -924 -574 0
-577 924 0
-577 574 0
578 -40 -12 0
-578 40 0
-578 12 0
579 -578 -9 0
-579 578 0
-579 9 0
580 -925 -577 0
-580 925 0
-580 577 0
581 -815 -1 0
-581 815 0
-581 1 0
582 -581 -702 0
-582 581 0
-582 702 0
583 -926 -580 0
-583 926 0
-583 580 0
584 -765 -727 0
-584 765 0
-584 727 0
585 -584 -702 0
-585 584 0
-585 702 0
586 -927 -583 0
-586 927 0
-586 583 0
587 -36 -2 0
-587 36 0
-587 2 0
588 -587 -24 0
-588 587 0
-588 24 0
589 -928 -586 0
-589 928 0
-589 586 0
590 -33 -715 0
-590 33 0
-590 715 0
591 -590 -829 0
-591 590 0
-591 829 0
592 -929 -589 0
-592 929 0
-592 589 0
593 -40 -757 0
-593 40 0
-593 757 0
594 -593 -49 0
-594 593 0
-594 49 0
595 -930 -592 0
-595 930 0
-595 592 0
596 -20 -2 0
-596 20 0
-596 2 0
597 -596 -744 0
-597 596 0
-597 744 0
598 -931 -595 0
-598 931 0
-598 595 0
599 -815 -711 0
-599 815 0
-599 711 0
600 -599 -709 0
-600 599 0
-600 709 0
601 -932 -598 0
-601 932 0
-601 598 0
602 -737 -10 0
-602 737 0
-602 10 0
603 -602 -705 0
-603 602 0
-603 705 0
604 -933 -601 0
-604 933 0
-604 601 0
605 -33 -752 0
-605 33 0
-605 752 0
606 -605 -724 0
-606 605 0
-606 724 0
607 -934 -604 0
-607 934 0
-607 604 0
608 -47 -709 0
-608 47 0
-608 709 0
609 -608 -18 0
-609 608 0
-609 18 0
610 -935 -607 0
-610 935 0
-610 607 0
611 -781 -737 0
-611 781 0
-611 737 0
612 -611 -13 0
-612 611 0
-612 13 0
613 -936 -610 0
-613 936 0
-613 610 0
614 -850 -25 0
-614 850 0
-614 25 0
615 -614 -728 0
-615 614 0
-615 728 0
616 -937 -613 0
-616 937 0
-616 613 0
617 -771 -17 0
-617 771 0
-617 17 0
618 -617 -765 0
-618 617 0
-618 765 0
619 -938 -616 0
-619 938 0
-619 616 0
620 -22 -727 0
-620 22 0
-620 727 0
621 -620 -815 0
-621 620 0
-621 815 0
622 -939 -619 0
-622 939 0
-622 619 0
623 -41 -819 0
-623 41 0
-623 819 0
624 -623 -40 0
-624 623 0
-624 40 0
625 -940 -622 0
-625 940 0
-625 622 0
626 -23 -717 0
-626 23 0
-626 717 0
627 -626 -788 0
-627 626 0
-627 788 0
628 -941 -625 0
-628 941 0
-628 625 0
629 -721 -699 0
-629 721 0
-629 699 0
630 -629 -43 0
-630 629 0
-630 43 0
631 -942 -628 0
-631 942 0
-631 628 0
632 -212 -34 0
-632 212 0
-632 34 0
633 -943 -631 0
-633 943 0
-633 631 0
634 -751 -14 0
-634 751 0
-634 14 0
635 -634 -24 0
-635 634 0
-635 24 0
636 -944 -633 0
-636 944 0
-636 633 0
637 -813 -17 0
-637 813 0
-637 17 0
638 -637 -6 0
-638 637 0
-638 6 0
639 -945 -636 0
-639 945 0
-639 636 0
640 -737 -731 0
-640 737 0
-640 731 0
641 -640 -39 0
-641 640 0
-641 39 0
642 -946 -639 0
-642 946 0
-642 639 0
643 -910 -32 0
-643 910 0
-643 32 0
644 -643 -26 0
-644 643 0
-644 26 0
645 -947 -642 0
-645 947 0
-645 642 0
646 -39 -36 0
-646 39 0
-646 36 0
647 -646 -34 0
-647 646 0
-647 34 0
648 -948 -645 0
-648 948 0
-648 645 0
649 -33 -12 0
-649 33 0
-649 12 0
650 -649 -726 0
-650 649 0
-650 726 0
651 -949 -648 0
-651 949 0
-651 648 0
652 -12 -748 0
-652 12 0
-652 748 0
653 -652 -726 0
-653 652 0
-653 726 0
654 -950 -651 0
-654 950 0
-654 651 0
655 -31 -23 0
-655 31 0
-655 23 0
656 -655 -829 0
-656 655 0
-656 829 0
657 -951 -654 0
-657 951 0
-657 654 0
658 -773 -6 0
-658 773 0
-658 6 0
659 -658 -15 0
-659 658 0
-659 15 0
660 -952 -657 0
-660 952 0
-660 657 0
661 -6 -2 0
-661 6 0
-661 2 0
662 -661 -9 0
-662 661 0
-662 9 0
663 -953 -660 0
-663 953 0
-663 660 0
664 -751 -28 0
-664 751 0
-664 28 0
665 -664 -724 0
-665 664 0
-665 724 0
666 -954 -663 0
-666 954 0
-666 663 0
667 -910 -1 0
-667 910 0
-667 1 0
668 -667 -18 0
-668 667 0
-668 18 0
669 -955 -666 0
-669 955 0
-669 666 0
670 -751 -36 0
-670 751 0
-670 36 0
671 -670 -703 0
-671 670 0
-671 703 0
672 -956 -669 0
-672 956 0
-672 669 0
673 -746 -1 0
-673 746 0
-673 1 0
674 -673 -8 0
-674 673 0
-674 8 0
675 -957 -672 0
-675 957 0
-675 672 0
676 -30 -21 0
-676 30 0
-676 21 0
677 -676 -46 0
-677 676 0
-677 46 0
678 -958 -675 0
-678 958 0
-678 675 0
679 -730 -8 0
-679 730 0
-679 8 0
680 -679 -25 0
-680 679 0
-680 25 0
681 -959 -678 0
-681 959 0
-681 678 0
682 -44 -742 0
-682 44 0
-682 742 0
683 -682 -40 0
-683 682 0
-683 40 0
684 -960 -681 0
-684 960 0
-684 681 0
685 -17 -8 0
-685 17 0
-685 8 0
686 -685 -728 0
-686 685 0
-686 728 0
687 -961 -684 0
-687 961 0
-687 684 0
688 -37 -778 0
-688 37 0
-688 778 0
689 -688 -15 0
-689 688 0
-689 15 0
690 -962 -687 0
-690 962 0
-690 687 0
691 -781 -705 0
-691 781 0
-691 705 0
692 -691 -41 0
-692 691 0
-692 41 0
693 -963 -690 0
-693 963 0
-693 690 0
694 -36 -730 0
-694 36 0
-694 730 0
695 -694 -32 0
-695 694 0
-695 32 0
696 -964 -693 0
-696 964 0
-696 693 0
-697 -1 0
697 1 0
-698 -5 0
698 5 0
-699 -6 0
699 6 0
-700 -54 0
700 54 0
-701 -52 0
701 52 0
-702 -8 0
702 8 0
-703 -9 0
703 9 0
-704 -57 0
704 57 0
-705 -3 0
705 3 0
-706 -11 0
706 11 0
-707 -60 0
707 60 0
-708 -63 0
708 63 0
-709 -15 0
709 15 0
-710 -66 0
710 66 0
-711 -17 0
711 17 0
-712 -69 0
712 69 0
-713 -18 0
713 18 0
-714 -72 0
714 72 0
-715 -12 0
715 12 0
-716 -75 0
716 75 0
-717 -7 0
717 7 0
-718 -78 0
718 78 0
-719 -81 0
719 81 0
-720 -14 0
720 14 0
-721 -23 0
721 23 0
-722 -84 0
722 84 0
-723 -87 0
723 87 0
-724 -25 0
724 25 0
-725 -90 0
725 90 0
-726 -26 0
726 26 0
-727 -4 0
727 4 0
-728 -27 0
728 27 0
-729 -93 0
729 93 0
-730 -28 0
730 28 0
-731 -16 0
731 16 0
-732 -96 0
732 96 0
-733 -29 0
733 29 0
-734 -99 0
734 99 0
-735 -20 0
735 20 0
-736 -102 0
736 102 0
-737 -21 0
737 21 0
-738 -19 0
738 19 0
-739 -105 0
739 105 0
-740 -30 0
740 30 0
-741 -108 0
741 108 0
-742 -31 0
742 31 0
-743 -111 0
743 111 0
-744 -32 0
744 32 0
-745 -114 0
745 114 0
-746 -22 0
746 22 0
-747 -117 0
747 117 0
-748 -2 0
748 2 0
-749 -120 0
749 120 0
-750 -123 0
750 123 0
-751 -37 0
751 37 0
-752 -24 0
752 24 0
-753 -126 0
753 126 0
-754 -129 0
754 129 0
-755 -132 0
755 132 0
-756 -135 0
756 135 0
-757 -39 0
757 39 0
-758 -138 0
758 138 0
-759 -141 0
759 141 0
-760 -144 0
760 144 0
-761 -147 0
761 147 0
-762 -36 0
762 36 0
-763 -150 0
763 150 0
-764 -153 0
764 153 0
-765 -41 0
765 41 0
-766 -156 0
766 156 0
-767 -44 0
767 44 0
-768 -159 0
768 159 0
-769 -162 0
769 162 0
-770 -165 0
770 165 0
-771 -33 0
771 33 0
-772 -168 0
772 168 0
-773 -34 0
773 34 0
-774 -171 0
774 171 0
-775 -174 0
775 174 0
-776 -177 0
776 177 0
-777 -180 0
777 180 0
-778 -13 0
778 13 0
-779 -45 0
779 45 0
-780 -183 0
780 183 0
-781 -47 0
781 47 0
-782 -186 0
782 186 0
-783 -189 0
783 189 0
-784 -192 0
784 192 0
-785 -195 0
785 195 0
-786 -198 0
786 198 0
-787 -201 0
787 201 0
-788 -48 0
788 48 0
-789 -204 0
789 204 0
-790 -207 0
790 207 0
-791 -210 0
791 210 0
-792 -213 0
792 213 0
-793 -216 0
793 216 0
-794 -219 0
794 219 0
-795 -38 0
795 38 0
-796 -222 0
796 222 0
-797 -225 0
797 225 0
-798 -228 0
798 228 0
-799 -231 0
799 231 0
-800 -234 0
800 234 0
-801 -237 0
801 237 0
-802 -240 0
802 240 0
-803 -243 0
803 243 0
-804 -246 0
804 246 0
-805 -249 0
805 249 0
-806 -252 0
806 252 0
-807 -255 0
807 255 0
-808 -258 0
808 258 0
-809 -261 0
809 261 0
-810 -264 0
810 264 0
-811 -267 0
811 267 0
-812 -270 0
812 270 0
-813 -50 0
813 50 0
-814 -273 0
814 273 0
-815 -35 0
815 35 0
-816 -276 0
816 276 0
-817 -279 0
817 279 0
-818 -282 0
818 282 0
-819 -10 0
819 10 0
-820 -285 0
820 285 0
-821 -288 0
821 288 0
-822 -291 0
822 291 0
-823 -294 0
823 294 0
-824 -49 0
824 49 0
-825 -297 0
825 297 0
-826 -300 0
826 300 0
-827 -43 0
827 43 0
-828 -303 0
828 303 0
-829 -46 0
829 46 0
-830 -306 0
830 306 0
-831 -309 0
831 309 0
-832 -312 0
832 312 0
-833 -315 0
833 315 0
-834 -318 0
834 318 0
-835 -321 0
835 321 0
-836 -324 0
836 324 0
-837 -327 0
837 327 0
-838 -330 0
838 330 0
-839 -333 0
839 333 0
-840 -336 0
840 336 0
-841 -339 0
841 339 0
-842 -342 0
842 342 0
-843 -345 0
843 345 0
-844 -348 0
844 348 0
-845 -351 0
845 351 0
-846 -354 0
846 354 0
-847 -357 0
847 357 0
-848 -360 0
848 360 0
-849 -363 0
849 363 0
-850 -40 0
850 40 0
-851 -366 0
851 366 0
-852 -369 0
852 369 0
-853 -372 0
853 372 0
-854 -375 0
854 375 0
-855 -378 0
855 378 0
-856 -381 0
856 381 0
-857 -384 0
857 384 0
-858 -387 0
858 387 0
-859 -390 0
859 390 0
-860 -392 0
860 392 0
-861 -395 0
861 395 0
-862 -397 0
862 397 0
-863 -400 0
863 400 0
-864 -402 0
864 402 0
-865 -405 0
865 405 0
-866 -408 0
866 408 0
-867 -411 0
867 411 0
-868 -414 0
868 414 0
-869 -417 0
869 417 0
-870 -420 0
870 420 0
-871 -423 0
871 423 0
-872 -426 0
872 426 0
-873 -429 0
873 429 0
-874 -432 0
874 432 0
-875 -435 0
875 435 0
-876 -438 0
876 438 0
-877 -441 0
877 441 0
-878 -444 0
878 444 0
-879 -447 0
879 447 0
-880 -450 0
880 450 0
-881 -453 0
881 453 0
-882 -456 0
882 456 0
-883 -459 0
883 459 0
-884 -462 0
884 462 0
-885 -465 0
885 465 0
-886 -468 0
886 468 0
-887 -471 0
887 471 0
-888 -474 0
888 474 0
-889 -477 0
889 477 0
-890 -480 0
890 480 0
-891 -483 0
891 483 0
-892 -486 0
892 486 0
-893 -489 0
893 489 0
-894 -492 0
894 492 0
-895 -495 0
895 495 0
-896 -498 0
896 498 0
-897 -500 0
897 500 0
-898 -503 0
898 503 0
-899 -506 0
899 506 0
-900 -509 0
900 509 0
-901 -512 0
901 512 0
-902 -515 0
902 515 0
-903 -518 0
903 518 0
-904 -521 0
904 521 0
-905 -524 0
905 524 0
-906 -527 0
906 527 0
-907 -529 0
907 529 0
-908 -532 0
908 532 0
-909 -535 0
909 535 0
-910 -42 0
910 42 0
-911 -538 0
911 538 0
-912 -541 0
912 541 0
-913 -544 0
913 544 0
-914 -546 0
914 546 0
-915 -549 0
915 549 0
-916 -552 0
916 552 0
-917 -555 0
917 555 0
-918 -558 0
918 558 0
-919 -561 0
919 561 0
-920 -564 0
920 564 0
-921 -567 0
921 567 0
-922 -570 0
922 570 0
-923 -573 0
923 573 0
-924 -576 0
924 576 0
-925 -579 0
925 579 0
-926 -582 0
926 582 0
-927 -585 0
927 585 0
-928 -588 0
928 588 0
-929 -591 0
929 591 0
-930 -594 0
930 594 0
-931 -597 0
931 597 0
-932 -600 0
932 600 0
-933 -603 0
933 603 0
-934 -606 0
934 606 0
-935 -609 0
935 609 0
-936 -612 0
936 612 0
-937 -615 0
937 615 0
-938 -618 0
938 618 0
-939 -621 0
939 621 0
-940 -624 0
940 624 0
-941 -627 0
941 627 0
-942 -630 0
942 630 0
-943 -632 0
943 632 0
-944 -635 0
944 635 0
-945 -638 0
945 638 0
-946 -641 0
946 641 0
-947 -644 0
947 644 0
-948 -647 0
948 647 0
-949 -650 0
949 650 0
-950 -653 0
950 653 0
-951 -656 0
951 656 0
-952 -659 0
952 659 0
-953 -662 0
953 662 0
-954 -665 0
954 665 0
-955 -668 0
955 668 0
-956 -671 0
956 671 0
-957 -674 0
957 674 0
-958 -677 0
958 677 0
-959 -680 0
959 680 0
-960 -683 0
960 683 0
-961 -686 0
961 686 0
-962 -689 0
962 689 0
-963 -692 0
963 692 0
-964 -695 0
964 695 0
696 0
